c This is QMaxSAT 2017 based on 14.07
c This is Glucose 3.0
c This is MiniSat 2.2.0
c WARNING: for repeatability, setting FPU to use double precision
c card = mrwto, comp = 0, pmodel = 0, narr = 8, mct = 29, verb = 0
cr firstCPXsol 0 0 0
c top = 167313
c |  Number of variables:    27896                                            |
c |  Number of clauses:      8900880                                          |
c |  Weight of hard clauses: 167313                                           |
c |  Number of soft clauses: 6496                                             |
c |  Number of unit soft clauses: 6496                                        |
c |  Maximum Cardinality (by unit): 1338496      (1338496     )               |
c last restart ## conflicts  :  7 3824 
o 2050 | cpuTime 0.772898 s
c Sum of weights = 167312
c A number of soft clauses remained = 812
c MRWTO encoding for Pseudo-Boolean Constraints
c sizeMax=2050
c No.0 Divisor=13	generated by pow1
c No.1 Divisor=13	generated by pow1
c No.2 Divisor=13	generated by pow1
c p0= 13	p1= 13	p2= 13	
c number of digits = 4
c linkingVar[0].size = 13, linkingVar[1].size = 13, linkingVar[2].size = 13, linkingVar[3].size = 1, 
c Pseudo-Boolean Constraints: 19579 variables and 206739 clauses
c Sum of weights = 167312
c A number of soft clauses remained = 812
c MRWTO encoding for Pseudo-Boolean Constraints
c sizeMax=2050
c No.0 Divisor=13	generated by pow1
c No.1 Divisor=13	generated by pow1
c No.2 Divisor=13	generated by pow1
c p0= 13	p1= 13	p2= 13	
c number of digits = 4
c linkingVar[0].size = 13, linkingVar[1].size = 13, linkingVar[2].size = 13, linkingVar[3].size = 1, 
c Pseudo-Boolean Constraints: 19579 variables and 206739 clauses
c Sum of weights = 167312
c A number of soft clauses remained = 812
c MRWTO encoding for Pseudo-Boolean Constraints
c sizeMax=2050
c No.0 Divisor=13	generated by pow1
c No.1 Divisor=13	generated by pow1
c No.2 Divisor=13	generated by pow1
c p0= 13	p1= 13	p2= 13	
c number of digits = 4
c linkingVar[0].size = 13, linkingVar[1].size = 13, linkingVar[2].size = 13, linkingVar[3].size = 1, 
c Pseudo-Boolean Constraints: 19579 variables and 206739 clauses
c Sum of weights = 167312
c A number of soft clauses remained = 812
c MRWTO encoding for Pseudo-Boolean Constraints
c sizeMax=2050
c No.0 Divisor=13	generated by pow1
c No.1 Divisor=13	generated by pow1
c No.2 Divisor=13	generated by pow1
c p0= 13	p1= 13	p2= 13	
c number of digits = 4
c linkingVar[0].size = 13, linkingVar[1].size = 13, linkingVar[2].size = 13, linkingVar[3].size = 1, 
c Pseudo-Boolean Constraints: 19579 variables and 206739 clauses
c Sum of weights = 167312
c A number of soft clauses remained = 812
c MRWTO encoding for Pseudo-Boolean Constraints
c sizeMax=2050
c No.0 Divisor=13	generated by pow1
c No.1 Divisor=13	generated by pow1
c No.2 Divisor=13	generated by pow1
c p0= 13	p1= 13	p2= 13	
c number of digits = 4
c linkingVar[0].size = 13, linkingVar[1].size = 13, linkingVar[2].size = 13, linkingVar[3].size = 1, 
c Pseudo-Boolean Constraints: 19579 variables and 206739 clauses
c Sum of weights = 167312
c A number of soft clauses remained = 812
c MRWTO encoding for Pseudo-Boolean Constraints
c sizeMax=2050
c No.0 Divisor=13	generated by pow1
c No.1 Divisor=13	generated by pow1
c No.2 Divisor=13	generated by pow1
c p0= 13	p1= 13	p2= 13	
c number of digits = 4
c linkingVar[0].size = 13, linkingVar[1].size = 13, linkingVar[2].size = 13, linkingVar[3].size = 1, 
c Pseudo-Boolean Constraints: 19579 variables and 206739 clauses
c Sum of weights = 167312
c A number of soft clauses remained = 812
c MRWTO encoding for Pseudo-Boolean Constraints
c sizeMax=2050
c No.0 Divisor=13	generated by pow1
c No.1 Divisor=13	generated by pow1
c No.2 Divisor=13	generated by pow1
c p0= 13	p1= 13	p2= 13	
c number of digits = 4
c linkingVar[0].size = 13, linkingVar[1].size = 13, linkingVar[2].size = 13, linkingVar[3].size = 1, 
c Pseudo-Boolean Constraints: 19579 variables and 206739 clauses
c Sum of weights = 167312
c A number of soft clauses remained = 812
c MRWTO encoding for Pseudo-Boolean Constraints
c sizeMax=2050
c No.0 Divisor=13	generated by pow1
c No.1 Divisor=13	generated by pow1
c No.2 Divisor=13	generated by pow1
c p0= 13	p1= 13	p2= 13	
c number of digits = 4
c linkingVar[0].size = 13, linkingVar[1].size = 13, linkingVar[2].size = 13, linkingVar[3].size = 1, 
c Pseudo-Boolean Constraints: 19579 variables and 206739 clauses
c last restart ## conflicts  :  2 9208 
o 1863 | cpuTime 3.45749 s
c last restart ## conflicts  :  93 7873 
o 1663 | cpuTime 7.14262 s
c last restart ## conflicts  :  2573 14071 
o 1603 | cpuTime 8.91009 s
c last restart ## conflicts  :  38 8725 
o 1556 | cpuTime 11.8785 s
c last restart ## conflicts  :  35 36728 
o 1282 | cpuTime 11.9318 s
c last restart ## conflicts  :  213 12726 
o 1217 | cpuTime 13.4116 s
c last restart ## conflicts  :  39 30923 
o 1125 | cpuTime 13.4763 s
c last restart ## conflicts  :  9 14291 
o 1068 | cpuTime 14.1045 s
c last restart ## conflicts  :  1651 6364 
o 1019 | cpuTime 26.0187 s
c last restart ## conflicts  :  452 3920 
o 992 | cpuTime 36.8518 s
c last restart ## conflicts  :  1000 5330 
o 938 | cpuTime 47.6779 s
c last restart ## conflicts  :  196 5749 
o 906 | cpuTime 66.4907 s
c last restart ## conflicts  :  282 4255 
o 846 | cpuTime 110.276 s
c last restart ## conflicts  :  1231 4799 
o 840 | cpuTime 152.06 s
c last restart ## conflicts  :  287 2935 
o 838 | cpuTime 181.301 s
c last restart ## conflicts  :  1123 7508 
o 833 | cpuTime 379.541 s
c last restart ## conflicts  :  37 4567 
o 825 | cpuTime 710.907 s
c last restart ## conflicts  :  199 3540 
o 790 | cpuTime 742.075 s
c last restart ## conflicts  :  63 9771 
o 739 | cpuTime 744.166 s
c last restart ## conflicts  :  918 3091 
o 738 | cpuTime 1253.32 s
c last restart ## conflicts  :  72 5078 
o 731 | cpuTime 2327.05 s
s UNKNOWN
c Search is stopped by a limit (maybe time-limit)
cr positiVarArr: [ | 9@1(1->9) | 233@1(9->1) | 862@2(1->21) | 928@2(3->29) | 963@2(5->6) | 998@2(6->12) | 1161@2(12->1) | 1424@2(21->3) | 1571@2(26->5) | 1679@2(29->26) | 1697@3(1->15) | 1712@3(2->1) | 2061@3(14->2) | 2110@3(15->22) | 2305@3(22->14) | 2536@4(1->13) | 2630@4(4->20) | 2788@4(10->4) | 2898@4(13->27) | 3102@4(20->28) | 3287@4(27->10) | 3307@4(28->1) | 3383@5(1->19) | 3561@5(7->23) | 3911@5(19->25) | 4003@5(23->1) | 4067@5(25->7) | 4216@6(1->11) | 4513@6(11->18) | 4641@6(16->1) | 4714@6(18->16) | 5054@7(1->8) | 5250@7(8->1) | 5904@8(1->17) | 6375@8(17->24) | 6555@8(24->1) | ]
cr the 1-th chain: [ 1->9->1 ] (#non-depot=1) {#cumul.=2}
cr the 2-th chain: [ 1->21->3->29->26->5->6->12->1 ] (#non-depot=7) {#cumul.=9}
cr the 3-th chain: [ 1->15->22->14->2->1 ] (#non-depot=4) {#cumul.=13}
cr the 4-th chain: [ 1->13->27->10->4->20->28->1 ] (#non-depot=6) {#cumul.=19}
cr the 5-th chain: [ 1->19->25->7->23->1 ] (#non-depot=4) {#cumul.=23}
cr the 6-th chain: [ 1->11->18->16->1 ] (#non-depot=3) {#cumul.=26}
cr the 7-th chain: [ 1->8->1 ] (#non-depot=1) {#cumul.=27}
cr the 8-th chain: [ 1->17->24->1 ] (#non-depot=2) {#cumul.=29}
c Latest Answer = 0 by 22 loops
c restarts              : 21511
c conflicts             : 8971525        (2500 /sec)
c decisions             : 57886525       (0.00 % random) (16132 /sec)
c propagations          : 23817544129    (6637562 /sec)
c conflict literals     : 3796062949     (48.21 % deleted)
c Memory used           : 1617.00 MB
c CPU time              : 3588.3 s
